4 3 100 1 2
0 1000
 1 35.00 35.00 0.00 0.00 0.00 0 0 0 1000
 2 41.00 49.00 10.00 10.00 18.00 1 1 1 190 974
 3 35.00 17.00 10.00 7.00 10.00 1 1 1 18 792
 4 55.00 45.00 10.00 13.00 13.00 1 1 1 289 822
 5 55.00 20.00 10.00 19.00 18.00 1 1 1 679 800
 6 15.00 30.00 10.00 26.00 2.00 1 1 1 20 906
 7 25.00 30.00 10.00 3.00 5.00 1 1 1 355 574
 8 20.00 50.00 10.00 5.00 10.00 1 1 1 72 669
 9 10.00 43.00 10.00 9.00 36.00 1 1 1 393 492
 10 55.00 60.00 10.00 16.00 20.00 1 1 1 394 503
 11 30.00 60.00 10.00 16.00 21.00 1 1 1 517 692
 12 20.00 65.00 10.00 12.00 26.00 1 1 1 206 325
 13 50.00 35.00 10.00 19.00 3.00 1 1 1 15 725
 14 30.00 25.00 10.00 23.00 18.00 1 1 1 694 823
 15 15.00 10.00 10.00 20.00 17.00 1 1 1 32 694
 16 30.00 5.00 10.00 8.00 5.00 1 1 1 176 299
 17 10.00 20.00 10.00 19.00 9.00 1 1 1 102 543
 18 5.00 30.00 10.00 2.00 15.00 1 1 1 673 930
 19 20.00 40.00 10.00 12.00 9.00 1 1 1 229 582
 20 15.00 60.00 10.00 17.00 20.00 1 1 1 95 552
 21 45.00 65.00 10.00 9.00 36.00 1 1 1 418 829
 22 45.00 20.00 10.00 11.00 5.00 1 1 1 18 727
 23 45.00 10.00 10.00 18.00 6.00 1 1 1 349 554
 24 55.00 5.00 10.00 29.00 9.00 1 1 1 206 325
 25 65.00 35.00 10.00 3.00 6.00 1 1 1 435 960
 26 65.00 20.00 10.00 6.00 19.00 1 1 1 826 956
 27 45.00 30.00 10.00 17.00 6.00 1 1 1 328 927
 28 35.00 40.00 10.00 16.00 9.00 1 1 1 44 315
 29 41.00 37.00 10.00 16.00 19.00 1 1 1 6 526
 30 64.00 42.00 10.00 9.00 17.00 1 1 1 29 513
 31 40.00 60.00 10.00 21.00 18.00 1 1 1 199 414
 32 31.00 52.00 10.00 27.00 16.00 1 1 1 17 744
 33 35.00 69.00 10.00 23.00 26.00 1 1 1 482 955
 34 53.00 52.00 10.00 11.00 14.00 1 1 1 24 299
 35 65.00 55.00 10.00 14.00 20.00 1 1 1 265 878
 36 63.00 65.00 10.00 8.00 11.00 1 1 1 626 873
 37 2.00 60.00 10.00 5.00 11.00 1 1 1 41 328
 38 20.00 20.00 10.00 8.00 35.00 1 1 1 339 960
 39 5.00 5.00 10.00 16.00 14.00 1 1 1 298 409
 40 60.00 12.00 10.00 31.00 27.00 1 1 1 33 344
 41 40.00 25.00 10.00 9.00 8.00 1 1 1 300 497
 42 42.00 7.00 10.00 5.00 12.00 1 1 1 336 571
 43 24.00 12.00 10.00 5.00 11.00 1 1 1 25 292
 44 23.00 3.00 10.00 7.00 9.00 1 1 1 458 867
 45 11.00 14.00 10.00 18.00 12.00 1 1 1 230 343
 46 6.00 38.00 10.00 16.00 41.00 1 1 1 29 309
 47 2.00 48.00 10.00 1.00 9.00 1 1 1 338 805
 48 8.00 56.00 10.00 27.00 25.00 1 1 1 34 602
 49 13.00 52.00 10.00 36.00 16.00 1 1 1 200 962
 50 6.00 68.00 10.00 30.00 9.00 1 1 1 441 600
 51 47.00 47.00 10.00 13.00 1.00 1 1 1 272 917
 52 49.00 58.00 10.00 10.00 7.00 1 1 1 176 625
 53 27.00 43.00 10.00 9.00 15.00 1 1 1 11 748
 54 37.00 31.00 10.00 14.00 22.00 1 1 1 403 500
 55 57.00 29.00 10.00 18.00 13.00 1 1 1 475 900
 56 63.00 23.00 10.00 2.00 3.00 1 1 1 620 739
 57 53.00 12.00 10.00 6.00 8.00 1 1 1 525 752
 58 32.00 12.00 10.00 7.00 9.00 1 1 1 246 705
 59 36.00 26.00 10.00 18.00 23.00 1 1 1 854 980
 60 21.00 24.00 10.00 28.00 16.00 1 1 1 17 972
 61 17.00 34.00 10.00 3.00 19.00 1 1 1 449 971
 62 12.00 24.00 10.00 13.00 10.00 1 1 1 126 541
 63 24.00 58.00 10.00 19.00 16.00 1 1 1 168 297
 64 27.00 69.00 10.00 10.00 13.00 1 1 1 34 588
 65 15.00 77.00 10.00 9.00 13.00 1 1 1 154 393
 66 62.00 77.00 10.00 20.00 7.00 1 1 1 49 308
 67 49.00 73.00 10.00 25.00 27.00 1 1 1 532 753
 68 67.00 5.00 10.00 25.00 25.00 1 1 1 291 404
 69 56.00 39.00 10.00 36.00 23.00 1 1 1 577 812
 70 37.00 47.00 10.00 6.00 16.00 1 1 1 165 290
 71 37.00 56.00 10.00 5.00 31.00 1 1 1 668 968
 72 57.00 68.00 10.00 15.00 29.00 1 1 1 98 537
 73 47.00 16.00 10.00 25.00 28.00 1 1 1 22 915
 74 44.00 17.00 10.00 9.00 14.00 1 1 1 143 564
 75 46.00 13.00 10.00 8.00 8.00 1 1 1 681 802
 76 49.00 11.00 10.00 18.00 6.00 1 1 1 27 711
 77 49.00 42.00 10.00 13.00 30.00 1 1 1 281 382
 78 53.00 43.00 10.00 14.00 1.00 1 1 1 821 948
 79 61.00 52.00 10.00 3.00 3.00 1 1 1 324 559
 80 57.00 48.00 10.00 23.00 12.00 1 1 1 377 476
 81 56.00 37.00 10.00 6.00 18.00 1 1 1 719 968
 82 55.00 54.00 10.00 26.00 3.00 1 1 1 268 599
 83 15.00 47.00 10.00 16.00 27.00 1 1 1 23 761
 84 14.00 37.00 10.00 11.00 23.00 1 1 1 21 842
 85 11.00 31.00 10.00 7.00 16.00 1 1 1 425 522
 86 16.00 22.00 10.00 41.00 5.00 1 1 1 110 727
 87 4.00 18.00 10.00 35.00 2.00 1 1 1 230 623
 88 28.00 18.00 10.00 26.00 25.00 1 1 1 397 470
 89 26.00 52.00 10.00 9.00 9.00 1 1 1 219 448
 90 26.00 35.00 10.00 15.00 11.00 1 1 1 409 981
 91 31.00 67.00 10.00 3.00 7.00 1 1 1 225 654
 92 15.00 19.00 10.00 1.00 5.00 1 1 1 222 964
 93 22.00 22.00 10.00 2.00 10.00 1 1 1 18 159
 94 18.00 24.00 10.00 22.00 3.00 1 1 1 691 969
 95 26.00 27.00 10.00 27.00 16.00 1 1 1 190 749
 96 25.00 24.00 10.00 20.00 7.00 1 1 1 14 793
 97 22.00 27.00 10.00 11.00 17.00 1 1 1 344 953
 98 25.00 21.00 10.00 12.00 19.00 1 1 1 462 823
 99 19.00 21.00 10.00 10.00 2.00 1 1 1 21 748
 100 20.00 26.00 10.00 9.00 26.00 1 1 1 328 437
 101 18.00 18.00 10.00 17.00 8.00 1 1 1 821 965
